c Generated with `cnfgen`
c (C) 2012-2019 Massimo Lauria <massimo.lauria@uniroma1.it>
c https://massimolauria.net/cnfgen
c
c COMMAND LINE: cnfgen --seed 1 -o ./tseitin/tseitin.gnm125-150.s1.cnf tseitin --gnm 125 150 --savegraph ./tseitin/tseitin.gnm125-150.s1.graph --graphformat dot --charge randomeven
c
p cnf 150 830
1 2 -3 0
1 -2 3 0
-1 2 3 0
-1 -2 -3 0
4 0
5 6 7 -8 0
5 6 -7 8 0
5 -6 7 8 0
5 -6 -7 -8 0
-5 6 7 8 0
-5 6 -7 -8 0
-5 -6 7 -8 0
-5 -6 -7 8 0
1 9 0
-1 -9 0
10 11 12 -13 0
10 11 -12 13 0
10 -11 12 13 0
10 -11 -12 -13 0
-10 11 12 13 0
-10 11 -12 -13 0
-10 -11 12 -13 0
-10 -11 -12 13 0
14 0
15 16 -17 0
15 -16 17 0
-15 16 17 0
-15 -16 -17 0
18 -19 0
-18 19 0
20 0
15 21 22 23 24 -25 0
15 21 22 23 -24 25 0
15 21 22 -23 24 25 0
15 21 22 -23 -24 -25 0
15 21 -22 23 24 25 0
15 21 -22 23 -24 -25 0
15 21 -22 -23 24 -25 0
15 21 -22 -23 -24 25 0
15 -21 22 23 24 25 0
15 -21 22 23 -24 -25 0
15 -21 22 -23 24 -25 0
15 -21 22 -23 -24 25 0
15 -21 -22 23 24 -25 0
15 -21 -22 23 -24 25 0
15 -21 -22 -23 24 25 0
15 -21 -22 -23 -24 -25 0
-15 21 22 23 24 25 0
-15 21 22 23 -24 -25 0
-15 21 22 -23 24 -25 0
-15 21 22 -23 -24 25 0
-15 21 -22 23 24 -25 0
-15 21 -22 23 -24 25 0
-15 21 -22 -23 24 25 0
-15 21 -22 -23 -24 -25 0
-15 -21 22 23 24 -25 0
-15 -21 22 23 -24 25 0
-15 -21 22 -23 24 25 0
-15 -21 22 -23 -24 -25 0
-15 -21 -22 23 24 25 0
-15 -21 -22 23 -24 -25 0
-15 -21 -22 -23 24 -25 0
-15 -21 -22 -23 -24 25 0
16 26 27 -28 0
16 26 -27 28 0
16 -26 27 28 0
16 -26 -27 -28 0
-16 26 27 28 0
-16 26 -27 -28 0
-16 -26 27 -28 0
-16 -26 -27 28 0
29 30 0
-29 -30 0
31 -32 0
-31 32 0
33 34 35 36 0
33 34 -35 -36 0
33 -34 35 -36 0
33 -34 -35 36 0
-33 34 35 -36 0
-33 34 -35 36 0
-33 -34 35 36 0
-33 -34 -35 -36 0
37 38 -39 0
37 -38 39 0
-37 38 39 0
-37 -38 -39 0
40 41 -42 0
40 -41 42 0
-40 41 42 0
-40 -41 -42 0
26 43 44 45 46 47 48 49 0
26 43 44 45 46 47 -48 -49 0
26 43 44 45 46 -47 48 -49 0
26 43 44 45 46 -47 -48 49 0
26 43 44 45 -46 47 48 -49 0
26 43 44 45 -46 47 -48 49 0
26 43 44 45 -46 -47 48 49 0
26 43 44 45 -46 -47 -48 -49 0
26 43 44 -45 46 47 48 -49 0
26 43 44 -45 46 47 -48 49 0
26 43 44 -45 46 -47 48 49 0
26 43 44 -45 46 -47 -48 -49 0
26 43 44 -45 -46 47 48 49 0
26 43 44 -45 -46 47 -48 -49 0
26 43 44 -45 -46 -47 48 -49 0
26 43 44 -45 -46 -47 -48 49 0
26 43 -44 45 46 47 48 -49 0
26 43 -44 45 46 47 -48 49 0
26 43 -44 45 46 -47 48 49 0
26 43 -44 45 46 -47 -48 -49 0
26 43 -44 45 -46 47 48 49 0
26 43 -44 45 -46 47 -48 -49 0
26 43 -44 45 -46 -47 48 -49 0
26 43 -44 45 -46 -47 -48 49 0
26 43 -44 -45 46 47 48 49 0
26 43 -44 -45 46 47 -48 -49 0
26 43 -44 -45 46 -47 48 -49 0
26 43 -44 -45 46 -47 -48 49 0
26 43 -44 -45 -46 47 48 -49 0
26 43 -44 -45 -46 47 -48 49 0
26 43 -44 -45 -46 -47 48 49 0
26 43 -44 -45 -46 -47 -48 -49 0
26 -43 44 45 46 47 48 -49 0
26 -43 44 45 46 47 -48 49 0
26 -43 44 45 46 -47 48 49 0
26 -43 44 45 46 -47 -48 -49 0
26 -43 44 45 -46 47 48 49 0
26 -43 44 45 -46 47 -48 -49 0
26 -43 44 45 -46 -47 48 -49 0
26 -43 44 45 -46 -47 -48 49 0
26 -43 44 -45 46 47 48 49 0
26 -43 44 -45 46 47 -48 -49 0
26 -43 44 -45 46 -47 48 -49 0
26 -43 44 -45 46 -47 -48 49 0
26 -43 44 -45 -46 47 48 -49 0
26 -43 44 -45 -46 47 -48 49 0
26 -43 44 -45 -46 -47 48 49 0
26 -43 44 -45 -46 -47 -48 -49 0
26 -43 -44 45 46 47 48 49 0
26 -43 -44 45 46 47 -48 -49 0
26 -43 -44 45 46 -47 48 -49 0
26 -43 -44 45 46 -47 -48 49 0
26 -43 -44 45 -46 47 48 -49 0
26 -43 -44 45 -46 47 -48 49 0
26 -43 -44 45 -46 -47 48 49 0
26 -43 -44 45 -46 -47 -48 -49 0
26 -43 -44 -45 46 47 48 -49 0
26 -43 -44 -45 46 47 -48 49 0
26 -43 -44 -45 46 -47 48 49 0
26 -43 -44 -45 46 -47 -48 -49 0
26 -43 -44 -45 -46 47 48 49 0
26 -43 -44 -45 -46 47 -48 -49 0
26 -43 -44 -45 -46 -47 48 -49 0
26 -43 -44 -45 -46 -47 -48 49 0
-26 43 44 45 46 47 48 -49 0
-26 43 44 45 46 47 -48 49 0
-26 43 44 45 46 -47 48 49 0
-26 43 44 45 46 -47 -48 -49 0
-26 43 44 45 -46 47 48 49 0
-26 43 44 45 -46 47 -48 -49 0
-26 43 44 45 -46 -47 48 -49 0
-26 43 44 45 -46 -47 -48 49 0
-26 43 44 -45 46 47 48 49 0
-26 43 44 -45 46 47 -48 -49 0
-26 43 44 -45 46 -47 48 -49 0
-26 43 44 -45 46 -47 -48 49 0
-26 43 44 -45 -46 47 48 -49 0
-26 43 44 -45 -46 47 -48 49 0
-26 43 44 -45 -46 -47 48 49 0
-26 43 44 -45 -46 -47 -48 -49 0
-26 43 -44 45 46 47 48 49 0
-26 43 -44 45 46 47 -48 -49 0
-26 43 -44 45 46 -47 48 -49 0
-26 43 -44 45 46 -47 -48 49 0
-26 43 -44 45 -46 47 48 -49 0
-26 43 -44 45 -46 47 -48 49 0
-26 43 -44 45 -46 -47 48 49 0
-26 43 -44 45 -46 -47 -48 -49 0
-26 43 -44 -45 46 47 48 -49 0
-26 43 -44 -45 46 47 -48 49 0
-26 43 -44 -45 46 -47 48 49 0
-26 43 -44 -45 46 -47 -48 -49 0
-26 43 -44 -45 -46 47 48 49 0
-26 43 -44 -45 -46 47 -48 -49 0
-26 43 -44 -45 -46 -47 48 -49 0
-26 43 -44 -45 -46 -47 -48 49 0
-26 -43 44 45 46 47 48 49 0
-26 -43 44 45 46 47 -48 -49 0
-26 -43 44 45 46 -47 48 -49 0
-26 -43 44 45 46 -47 -48 49 0
-26 -43 44 45 -46 47 48 -49 0
-26 -43 44 45 -46 47 -48 49 0
-26 -43 44 45 -46 -47 48 49 0
-26 -43 44 45 -46 -47 -48 -49 0
-26 -43 44 -45 46 47 48 -49 0
-26 -43 44 -45 46 47 -48 49 0
-26 -43 44 -45 46 -47 48 49 0
-26 -43 44 -45 46 -47 -48 -49 0
-26 -43 44 -45 -46 47 48 49 0
-26 -43 44 -45 -46 47 -48 -49 0
-26 -43 44 -45 -46 -47 48 -49 0
-26 -43 44 -45 -46 -47 -48 49 0
-26 -43 -44 45 46 47 48 -49 0
-26 -43 -44 45 46 47 -48 49 0
-26 -43 -44 45 46 -47 48 49 0
-26 -43 -44 45 46 -47 -48 -49 0
-26 -43 -44 45 -46 47 48 49 0
-26 -43 -44 45 -46 47 -48 -49 0
-26 -43 -44 45 -46 -47 48 -49 0
-26 -43 -44 45 -46 -47 -48 49 0
-26 -43 -44 -45 46 47 48 49 0
-26 -43 -44 -45 46 47 -48 -49 0
-26 -43 -44 -45 46 -47 48 -49 0
-26 -43 -44 -45 46 -47 -48 49 0
-26 -43 -44 -45 -46 47 48 -49 0
-26 -43 -44 -45 -46 47 -48 49 0
-26 -43 -44 -45 -46 -47 48 49 0
-26 -43 -44 -45 -46 -47 -48 -49 0
50 51 52 0
50 -51 -52 0
-50 51 -52 0
-50 -51 52 0
53 0
37 -54 0
-37 54 0
55 56 0
-55 -56 0
57 58 -59 0
57 -58 59 0
-57 58 59 0
-57 -58 -59 0
40 0
18 60 61 -62 0
18 60 -61 62 0
18 -60 61 62 0
18 -60 -61 -62 0
-18 60 61 62 0
-18 60 -61 -62 0
-18 -60 61 -62 0
-18 -60 -61 62 0
63 64 -65 0
63 -64 65 0
-63 64 65 0
-63 -64 -65 0
53 66 0
-53 -66 0
43 67 68 69 0
43 67 -68 -69 0
43 -67 68 -69 0
43 -67 -68 69 0
-43 67 68 -69 0
-43 67 -68 69 0
-43 -67 68 69 0
-43 -67 -68 -69 0
-70 0
10 -71 0
-10 71 0
21 72 73 -74 0
21 72 -73 74 0
21 -72 73 74 0
21 -72 -73 -74 0
-21 72 73 74 0
-21 72 -73 -74 0
-21 -72 73 -74 0
-21 -72 -73 74 0
38 75 0
-38 -75 0
76 0
-67 0
31 33 77 0
31 -33 -77 0
-31 33 -77 0
-31 -33 77 0
5 -78 0
-5 78 0
2 79 80 81 0
2 79 -80 -81 0
2 -79 80 -81 0
2 -79 -80 81 0
-2 79 80 -81 0
-2 79 -80 81 0
-2 -79 80 81 0
-2 -79 -80 -81 0
82 -83 0
-82 83 0
44 54 -84 0
44 -54 84 0
-44 54 84 0
-44 -54 -84 0
57 85 86 87 88 0
57 85 86 -87 -88 0
57 85 -86 87 -88 0
57 85 -86 -87 88 0
57 -85 86 87 -88 0
57 -85 86 -87 88 0
57 -85 -86 87 88 0
57 -85 -86 -87 -88 0
-57 85 86 87 -88 0
-57 85 86 -87 88 0
-57 85 -86 87 88 0
-57 85 -86 -87 -88 0
-57 -85 86 87 88 0
-57 -85 86 -87 -88 0
-57 -85 -86 87 -88 0
-57 -85 -86 -87 88 0
89 0
50 90 91 -92 0
50 90 -91 92 0
50 -90 91 92 0
50 -90 -91 -92 0
-50 90 91 92 0
-50 90 -91 -92 0
-50 -90 91 -92 0
-50 -90 -91 92 0
6 93 94 -95 0
6 93 -94 95 0
6 -93 94 95 0
6 -93 -94 -95 0
-6 93 94 95 0
-6 93 -94 -95 0
-6 -93 94 -95 0
-6 -93 -94 95 0
93 96 -97 0
93 -96 97 0
-93 96 97 0
-93 -96 -97 0
98 99 0
-98 -99 0
-100 0
101 0
102 103 0
-102 -103 0
104 105 0
-104 -105 0
60 102 106 107 0
60 102 -106 -107 0
60 -102 106 -107 0
60 -102 -106 107 0
-60 102 106 -107 0
-60 102 -106 107 0
-60 -102 106 107 0
-60 -102 -106 -107 0
34 0
108 109 0
-108 -109 0
-45 0
35 0
27 46 71 89 110 0
27 46 71 -89 -110 0
27 46 -71 89 -110 0
27 46 -71 -89 110 0
27 -46 71 89 -110 0
27 -46 71 -89 110 0
27 -46 -71 89 110 0
27 -46 -71 -89 -110 0
-27 46 71 89 -110 0
-27 46 71 -89 110 0
-27 46 -71 89 110 0
-27 46 -71 -89 -110 0
-27 -46 71 89 110 0
-27 -46 71 -89 -110 0
-27 -46 -71 89 -110 0
-27 -46 -71 -89 110 0
7 111 -112 0
7 -111 112 0
-7 111 112 0
-7 -111 -112 0
-58 0
4 -113 0
-4 113 0
28 82 114 115 116 117 118 -119 0
28 82 114 115 116 117 -118 119 0
28 82 114 115 116 -117 118 119 0
28 82 114 115 116 -117 -118 -119 0
28 82 114 115 -116 117 118 119 0
28 82 114 115 -116 117 -118 -119 0
28 82 114 115 -116 -117 118 -119 0
28 82 114 115 -116 -117 -118 119 0
28 82 114 -115 116 117 118 119 0
28 82 114 -115 116 117 -118 -119 0
28 82 114 -115 116 -117 118 -119 0
28 82 114 -115 116 -117 -118 119 0
28 82 114 -115 -116 117 118 -119 0
28 82 114 -115 -116 117 -118 119 0
28 82 114 -115 -116 -117 118 119 0
28 82 114 -115 -116 -117 -118 -119 0
28 82 -114 115 116 117 118 119 0
28 82 -114 115 116 117 -118 -119 0
28 82 -114 115 116 -117 118 -119 0
28 82 -114 115 116 -117 -118 119 0
28 82 -114 115 -116 117 118 -119 0
28 82 -114 115 -116 117 -118 119 0
28 82 -114 115 -116 -117 118 119 0
28 82 -114 115 -116 -117 -118 -119 0
28 82 -114 -115 116 117 118 -119 0
28 82 -114 -115 116 117 -118 119 0
28 82 -114 -115 116 -117 118 119 0
28 82 -114 -115 116 -117 -118 -119 0
28 82 -114 -115 -116 117 118 119 0
28 82 -114 -115 -116 117 -118 -119 0
28 82 -114 -115 -116 -117 118 -119 0
28 82 -114 -115 -116 -117 -118 119 0
28 -82 114 115 116 117 118 119 0
28 -82 114 115 116 117 -118 -119 0
28 -82 114 115 116 -117 118 -119 0
28 -82 114 115 116 -117 -118 119 0
28 -82 114 115 -116 117 118 -119 0
28 -82 114 115 -116 117 -118 119 0
28 -82 114 115 -116 -117 118 119 0
28 -82 114 115 -116 -117 -118 -119 0
28 -82 114 -115 116 117 118 -119 0
28 -82 114 -115 116 117 -118 119 0
28 -82 114 -115 116 -117 118 119 0
28 -82 114 -115 116 -117 -118 -119 0
28 -82 114 -115 -116 117 118 119 0
28 -82 114 -115 -116 117 -118 -119 0
28 -82 114 -115 -116 -117 118 -119 0
28 -82 114 -115 -116 -117 -118 119 0
28 -82 -114 115 116 117 118 -119 0
28 -82 -114 115 116 117 -118 119 0
28 -82 -114 115 116 -117 118 119 0
28 -82 -114 115 116 -117 -118 -119 0
28 -82 -114 115 -116 117 118 119 0
28 -82 -114 115 -116 117 -118 -119 0
28 -82 -114 115 -116 -117 118 -119 0
28 -82 -114 115 -116 -117 -118 119 0
28 -82 -114 -115 116 117 118 119 0
28 -82 -114 -115 116 117 -118 -119 0
28 -82 -114 -115 116 -117 118 -119 0
28 -82 -114 -115 116 -117 -118 119 0
28 -82 -114 -115 -116 117 118 -119 0
28 -82 -114 -115 -116 117 -118 119 0
28 -82 -114 -115 -116 -117 118 119 0
28 -82 -114 -115 -116 -117 -118 -119 0
-28 82 114 115 116 117 118 119 0
-28 82 114 115 116 117 -118 -119 0
-28 82 114 115 116 -117 118 -119 0
-28 82 114 115 116 -117 -118 119 0
-28 82 114 115 -116 117 118 -119 0
-28 82 114 115 -116 117 -118 119 0
-28 82 114 115 -116 -117 118 119 0
-28 82 114 115 -116 -117 -118 -119 0
-28 82 114 -115 116 117 118 -119 0
-28 82 114 -115 116 117 -118 119 0
-28 82 114 -115 116 -117 118 119 0
-28 82 114 -115 116 -117 -118 -119 0
-28 82 114 -115 -116 117 118 119 0
-28 82 114 -115 -116 117 -118 -119 0
-28 82 114 -115 -116 -117 118 -119 0
-28 82 114 -115 -116 -117 -118 119 0
-28 82 -114 115 116 117 118 -119 0
-28 82 -114 115 116 117 -118 119 0
-28 82 -114 115 116 -117 118 119 0
-28 82 -114 115 116 -117 -118 -119 0
-28 82 -114 115 -116 117 118 119 0
-28 82 -114 115 -116 117 -118 -119 0
-28 82 -114 115 -116 -117 118 -119 0
-28 82 -114 115 -116 -117 -118 119 0
-28 82 -114 -115 116 117 118 119 0
-28 82 -114 -115 116 117 -118 -119 0
-28 82 -114 -115 116 -117 118 -119 0
-28 82 -114 -115 116 -117 -118 119 0
-28 82 -114 -115 -116 117 118 -119 0
-28 82 -114 -115 -116 117 -118 119 0
-28 82 -114 -115 -116 -117 118 119 0
-28 82 -114 -115 -116 -117 -118 -119 0
-28 -82 114 115 116 117 118 -119 0
-28 -82 114 115 116 117 -118 119 0
-28 -82 114 115 116 -117 118 119 0
-28 -82 114 115 116 -117 -118 -119 0
-28 -82 114 115 -116 117 118 119 0
-28 -82 114 115 -116 117 -118 -119 0
-28 -82 114 115 -116 -117 118 -119 0
-28 -82 114 115 -116 -117 -118 119 0
-28 -82 114 -115 116 117 118 119 0
-28 -82 114 -115 116 117 -118 -119 0
-28 -82 114 -115 116 -117 118 -119 0
-28 -82 114 -115 116 -117 -118 119 0
-28 -82 114 -115 -116 117 118 -119 0
-28 -82 114 -115 -116 117 -118 119 0
-28 -82 114 -115 -116 -117 118 119 0
-28 -82 114 -115 -116 -117 -118 -119 0
-28 -82 -114 115 116 117 118 119 0
-28 -82 -114 115 116 117 -118 -119 0
-28 -82 -114 115 116 -117 118 -119 0
-28 -82 -114 115 116 -117 -118 119 0
-28 -82 -114 115 -116 117 118 -119 0
-28 -82 -114 115 -116 117 -118 119 0
-28 -82 -114 115 -116 -117 118 119 0
-28 -82 -114 115 -116 -117 -118 -119 0
-28 -82 -114 -115 116 117 118 -119 0
-28 -82 -114 -115 116 117 -118 119 0
-28 -82 -114 -115 116 -117 118 119 0
-28 -82 -114 -115 116 -117 -118 -119 0
-28 -82 -114 -115 -116 117 118 119 0
-28 -82 -114 -115 -116 117 -118 -119 0
-28 -82 -114 -115 -116 -117 118 -119 0
-28 -82 -114 -115 -116 -117 -118 119 0
3 83 85 98 106 114 0
3 83 85 98 -106 -114 0
3 83 85 -98 106 -114 0
3 83 85 -98 -106 114 0
3 83 -85 98 106 -114 0
3 83 -85 98 -106 114 0
3 83 -85 -98 106 114 0
3 83 -85 -98 -106 -114 0
3 -83 85 98 106 -114 0
3 -83 85 98 -106 114 0
3 -83 85 -98 106 114 0
3 -83 85 -98 -106 -114 0
3 -83 -85 98 106 114 0
3 -83 -85 98 -106 -114 0
3 -83 -85 -98 106 -114 0
3 -83 -85 -98 -106 114 0
-3 83 85 98 106 -114 0
-3 83 85 98 -106 114 0
-3 83 85 -98 106 114 0
-3 83 85 -98 -106 -114 0
-3 83 -85 98 106 114 0
-3 83 -85 98 -106 -114 0
-3 83 -85 -98 106 -114 0
-3 83 -85 -98 -106 114 0
-3 -83 85 98 106 114 0
-3 -83 85 98 -106 -114 0
-3 -83 85 -98 106 -114 0
-3 -83 85 -98 -106 114 0
-3 -83 -85 98 106 -114 0
-3 -83 -85 98 -106 114 0
-3 -83 -85 -98 106 114 0
-3 -83 -85 -98 -106 -114 0
96 0
120 121 0
-120 -121 0
22 115 122 123 0
22 115 -122 -123 0
22 -115 122 -123 0
22 -115 -122 123 0
-22 115 122 -123 0
-22 115 -122 123 0
-22 -115 122 123 0
-22 -115 -122 -123 0
9 23 0
-9 -23 0
32 79 124 125 -126 0
32 79 124 -125 126 0
32 79 -124 125 126 0
32 79 -124 -125 -126 0
32 -79 124 125 126 0
32 -79 124 -125 -126 0
32 -79 -124 125 -126 0
32 -79 -124 -125 126 0
-32 79 124 125 126 0
-32 79 124 -125 -126 0
-32 79 -124 125 -126 0
-32 79 -124 -125 126 0
-32 -79 124 125 -126 0
-32 -79 124 -125 126 0
-32 -79 -124 125 126 0
-32 -79 -124 -125 -126 0
63 99 127 128 0
63 99 -127 -128 0
63 -99 127 -128 0
63 -99 -127 128 0
-63 99 127 -128 0
-63 99 -127 128 0
-63 -99 127 128 0
-63 -99 -127 -128 0
-129 0
24 -130 0
-24 130 0
17 -86 0
-17 86 0
-129 0
72 94 108 -122 0
72 94 -108 122 0
72 -94 108 122 0
72 -94 -108 -122 0
-72 94 108 122 0
-72 94 -108 -122 0
-72 -94 108 -122 0
-72 -94 -108 122 0
75 77 0
-75 -77 0
97 110 0
-97 -110 0
120 124 0
-120 -124 0
20 0
11 73 113 131 132 0
11 73 113 -131 -132 0
11 73 -113 131 -132 0
11 73 -113 -131 132 0
11 -73 113 131 -132 0
11 -73 113 -131 132 0
11 -73 -113 131 132 0
11 -73 -113 -131 -132 0
-11 73 113 131 -132 0
-11 73 113 -131 132 0
-11 73 -113 131 132 0
-11 73 -113 -131 -132 0
-11 -73 113 131 132 0
-11 -73 113 -131 -132 0
-11 -73 -113 131 -132 0
-11 -73 -113 -131 132 0
41 55 -64 0
41 -55 64 0
-41 55 64 0
-41 -55 -64 0
12 70 133 134 0
12 70 -133 -134 0
12 -70 133 -134 0
12 -70 -133 134 0
-12 70 133 -134 0
-12 70 -133 134 0
-12 -70 133 134 0
-12 -70 -133 -134 0
29 0
13 56 116 131 135 136 0
13 56 116 131 -135 -136 0
13 56 116 -131 135 -136 0
13 56 116 -131 -135 136 0
13 56 -116 131 135 -136 0
13 56 -116 131 -135 136 0
13 56 -116 -131 135 136 0
13 56 -116 -131 -135 -136 0
13 -56 116 131 135 -136 0
13 -56 116 131 -135 136 0
13 -56 116 -131 135 136 0
13 -56 116 -131 -135 -136 0
13 -56 -116 131 135 136 0
13 -56 -116 131 -135 -136 0
13 -56 -116 -131 135 -136 0
13 -56 -116 -131 -135 136 0
-13 56 116 131 135 -136 0
-13 56 116 131 -135 136 0
-13 56 116 -131 135 136 0
-13 56 116 -131 -135 -136 0
-13 56 -116 131 135 136 0
-13 56 -116 131 -135 -136 0
-13 56 -116 -131 135 -136 0
-13 56 -116 -131 -135 136 0
-13 -56 116 131 135 136 0
-13 -56 116 131 -135 -136 0
-13 -56 116 -131 135 -136 0
-13 -56 116 -131 -135 136 0
-13 -56 -116 131 135 -136 0
-13 -56 -116 131 -135 136 0
-13 -56 -116 -131 135 136 0
-13 -56 -116 -131 -135 -136 0
90 -109 0
-90 109 0
78 137 138 0
78 -137 -138 0
-78 137 -138 0
-78 -137 138 0
47 111 -139 0
47 -111 139 0
-47 111 139 0
-47 -111 -139 0
65 87 95 104 107 139 0
65 87 95 104 -107 -139 0
65 87 95 -104 107 -139 0
65 87 95 -104 -107 139 0
65 87 -95 104 107 -139 0
65 87 -95 104 -107 139 0
65 87 -95 -104 107 139 0
65 87 -95 -104 -107 -139 0
65 -87 95 104 107 -139 0
65 -87 95 104 -107 139 0
65 -87 95 -104 107 139 0
65 -87 95 -104 -107 -139 0
65 -87 -95 104 107 139 0
65 -87 -95 104 -107 -139 0
65 -87 -95 -104 107 -139 0
65 -87 -95 -104 -107 139 0
-65 87 95 104 107 -139 0
-65 87 95 104 -107 139 0
-65 87 95 -104 107 139 0
-65 87 95 -104 -107 -139 0
-65 87 -95 104 107 139 0
-65 87 -95 104 -107 -139 0
-65 87 -95 -104 107 -139 0
-65 87 -95 -104 -107 139 0
-65 -87 95 104 107 139 0
-65 -87 95 104 -107 -139 0
-65 -87 95 -104 107 -139 0
-65 -87 95 -104 -107 139 0
-65 -87 -95 104 107 -139 0
-65 -87 -95 104 -107 139 0
-65 -87 -95 -104 107 139 0
-65 -87 -95 -104 -107 -139 0
91 125 140 -141 0
91 125 -140 141 0
91 -125 140 141 0
91 -125 -140 -141 0
-91 125 140 141 0
-91 125 -140 -141 0
-91 -125 140 -141 0
-91 -125 -140 141 0
117 142 0
-117 -142 0
103 -143 0
-103 143 0
-133 0
84 140 0
-84 -140 0
-144 0
48 135 0
-48 -135 0
68 136 -137 0
68 -136 137 0
-68 136 137 0
-68 -136 -137 0
121 0
59 101 0
-59 -101 0
145 0
105 118 144 145 -146 0
105 118 144 -145 146 0
105 118 -144 145 146 0
105 118 -144 -145 -146 0
105 -118 144 145 146 0
105 -118 144 -145 -146 0
105 -118 -144 145 -146 0
105 -118 -144 -145 146 0
-105 118 144 145 146 0
-105 118 144 -145 -146 0
-105 118 -144 145 -146 0
-105 118 -144 -145 146 0
-105 -118 144 145 -146 0
-105 -118 144 -145 146 0
-105 -118 -144 145 146 0
-105 -118 -144 -145 -146 0
74 80 126 134 146 147 0
74 80 126 134 -146 -147 0
74 80 126 -134 146 -147 0
74 80 126 -134 -146 147 0
74 80 -126 134 146 -147 0
74 80 -126 134 -146 147 0
74 80 -126 -134 146 147 0
74 80 -126 -134 -146 -147 0
74 -80 126 134 146 -147 0
74 -80 126 134 -146 147 0
74 -80 126 -134 146 147 0
74 -80 126 -134 -146 -147 0
74 -80 -126 134 146 147 0
74 -80 -126 134 -146 -147 0
74 -80 -126 -134 146 -147 0
74 -80 -126 -134 -146 147 0
-74 80 126 134 146 -147 0
-74 80 126 134 -146 147 0
-74 80 126 -134 146 147 0
-74 80 126 -134 -146 -147 0
-74 80 -126 134 146 147 0
-74 80 -126 134 -146 -147 0
-74 80 -126 -134 146 -147 0
-74 80 -126 -134 -146 147 0
-74 -80 126 134 146 147 0
-74 -80 126 134 -146 -147 0
-74 -80 126 -134 146 -147 0
-74 -80 126 -134 -146 147 0
-74 -80 -126 134 146 -147 0
-74 -80 -126 134 -146 147 0
-74 -80 -126 -134 146 147 0
-74 -80 -126 -134 -146 -147 0
19 25 100 -148 0
19 25 -100 148 0
19 -25 100 148 0
19 -25 -100 -148 0
-19 25 100 148 0
-19 25 -100 -148 0
-19 -25 100 -148 0
-19 -25 -100 148 0
142 143 149 0
142 -143 -149 0
-142 143 -149 0
-142 -143 149 0
49 -127 0
-49 127 0
61 92 141 150 0
61 92 -141 -150 0
61 -92 141 -150 0
61 -92 -141 150 0
-61 92 141 -150 0
-61 92 -141 150 0
-61 -92 141 150 0
-61 -92 -141 -150 0
42 119 -138 0
42 -119 138 0
-42 119 138 0
-42 -119 -138 0
51 81 112 -130 0
51 81 -112 130 0
51 -81 112 130 0
51 -81 -112 -130 0
-51 81 112 130 0
-51 81 -112 -130 0
-51 -81 112 -130 0
-51 -81 -112 130 0
123 0
30 0
39 149 0
-39 -149 0
8 36 88 132 -150 0
8 36 88 -132 150 0
8 36 -88 132 150 0
8 36 -88 -132 -150 0
8 -36 88 132 150 0
8 -36 88 -132 -150 0
8 -36 -88 132 -150 0
8 -36 -88 -132 150 0
-8 36 88 132 150 0
-8 36 88 -132 -150 0
-8 36 -88 132 -150 0
-8 36 -88 -132 150 0
-8 -36 88 132 -150 0
-8 -36 88 -132 150 0
-8 -36 -88 132 150 0
-8 -36 -88 -132 -150 0
147 0
52 66 -76 0
52 -66 76 0
-52 66 76 0
-52 -66 -76 0
14 -148 0
-14 148 0
62 0
69 128 0
-69 -128 0
